NAME : tsp20_2.164.tour
COMMENT : Length = 164
COMMENT : Found by LKH [Keld Helsgaun]
TYPE : TOUR
DIMENSION : 20
TOUR_SECTION
1
2
11
15
9
8
12
13
5
17
3
16
4
18
19
6
7
20
14
10
-1
EOF
